c colouring generated by benchmark framework
p edge 81 1056
v 1 10
v 2 8
v 3 7
v 4 1
v 5 0
v 6 9
v 7 6
v 8 5
v 9 2
v 10 6
v 11 2
v 12 9
v 13 5
v 14 4
v 15 7
v 16 1
v 17 10
v 18 8
v 19 4
v 20 10
v 21 1
v 22 7
v 23 3
v 24 0
v 25 8
v 26 6
v 27 9
v 28 7
v 29 6
v 30 0
v 31 9
v 32 2
v 33 4
v 34 5
v 35 1
v 36 3
v 37 2
v 38 1
v 39 8
v 40 4
v 41 6
v 42 3
v 43 10
v 44 9
v 45 5
v 46 8
v 47 4
v 48 10
v 49 3
v 50 1
v 51 5
v 52 0
v 53 2
v 54 7
v 55 1
v 56 9
v 57 5
v 58 2
v 59 7
v 60 8
v 61 3
v 62 4
v 63 0
v 64 3
v 65 7
v 66 4
v 67 0
v 68 5
v 69 10
v 70 9
v 71 8
v 72 6
v 73 9
v 74 0
v 75 3
v 76 10
v 77 8
v 78 6
v 79 2
v 80 7
v 81 4
